row=7;
Board=[|3,0,-1,-1,-1,4,-1,-1,-1,-1|-1,-1,-1,8,-1,9,-1,6,-1,1|-1,-1,9,-1,-1,-1,0,1,8,6|2,5,1,-1,6,-1,4,3,9,-1|-1,8,0,3,9,-1,5,7,-1,6|-1,5,-1,1,-1,-1,0,-1,-1,8|-1,-1,9,-1,5,8,-1,4,-1,0|];
bottom=[26,33,29,32,38,35,19,33,41,29]